Set parameter TokenServer to value "opt-license.discovery.wisc.edu"
Gurobi Optimizer version 9.5.1 build v9.5.1rc2 (linux64)
Thread count: 40 physical cores, 80 logical processors, using up to 32 threads
Optimize a model with 1681 rows, 1600 columns and 6360 nonzeros
Model fingerprint: 0xacdb560f
Coefficient statistics:
  Matrix range     [1e+00, 1e+03]
  Objective range  [1e+00, 8e+00]
  Bounds range     [1e+00, 1e+00]
  RHS range        [1e+00, 4e+00]
Presolve removed 40 rows and 0 columns
Presolve time: 0.00s
Presolved: 1641 rows, 1600 columns, 6360 nonzeros

Iteration    Objective       Primal Inf.    Dual Inf.      Time
       0    0.0000000e+00   1.942000e+03   0.000000e+00      0s
     733    5.0610115e+01   0.000000e+00   0.000000e+00      0s

Solved in 733 iterations and 0.04 seconds (0.03 work units)
Optimal objective  5.061011520e+01
Set parameter LazyConstraints to value 1
Set parameter TimeLimit to value 600
Gurobi Optimizer version 9.5.1 build v9.5.1rc2 (linux64)
Thread count: 40 physical cores, 80 logical processors, using up to 32 threads
Optimize a model with 1681 rows, 1600 columns and 6360 nonzeros
Model fingerprint: 0xb71d8174
Variable types: 0 continuous, 1600 integer (1600 binary)
Coefficient statistics:
  Matrix range     [1e+00, 1e+03]
  Objective range  [1e+00, 8e+00]
  Bounds range     [1e+00, 1e+00]
  RHS range        [1e+00, 4e+00]
Presolve removed 40 rows and 0 columns
Presolve time: 0.02s
Presolved: 1641 rows, 1600 columns, 6360 nonzeros
Variable types: 0 continuous, 1600 integer (1600 binary)

Root relaxation: objective 5.062090e+01, 718 iterations, 0.03 seconds (0.02 work units)

    Nodes    |    Current Node    |     Objective Bounds      |     Work
 Expl Unexpl |  Obj  Depth IntInf | Incumbent    BestBd   Gap | It/Node Time

     0     0   50.62090    0   68          -   50.62090      -     -    0s
H    0     0                      52.9727571   50.62090  4.44%     -    0s
     0     0   50.94824    0  100   52.97276   50.94824  3.82%     -    0s
     0     0   50.94824    0   67   52.97276   50.94824  3.82%     -    0s
     0     0   51.11161    0  135   52.97276   51.11161  3.51%     -    0s
     0     0   51.16438    0   50   52.97276   51.16438  3.41%     -    0s
     0     0   51.18907    0  102   52.97276   51.18907  3.37%     -    0s
     0     0   51.26091    0  156   52.97276   51.26091  3.23%     -    0s
     0     0   51.26514    0  154   52.97276   51.26514  3.22%     -    0s
     0     0   51.34970    0   71   52.97276   51.34970  3.06%     -    1s
H    0     0                      52.3869706   51.34970  1.98%     -    1s
     0     0   51.36321    0  156   52.38697   51.36321  1.95%     -    1s
     0     0   51.36631    0  160   52.38697   51.36631  1.95%     -    1s
     0     0   51.36631    0   59   52.38697   51.36631  1.95%     -    1s
     0     0   51.36631    0  128   52.38697   51.36631  1.95%     -    1s
     0     0   51.36631    0  130   52.38697   51.36631  1.95%     -    1s
     0     0   51.36631    0  130   52.38697   51.36631  1.95%     -    1s
     0     0   51.36631    0  132   52.38697   51.36631  1.95%     -    1s
     0     0   51.36680    0  134   52.38697   51.36680  1.95%     -    1s
     0     0   51.36721    0  134   52.38697   51.36721  1.95%     -    1s
     0     0   51.36721    0  134   52.38697   51.36721  1.95%     -    1s
     0     2   51.37743    0  134   52.38697   51.37743  1.93%     -    1s
H    4     8                      51.7273939   51.45368  0.53%  44.2    1s

Cutting planes:
  Gomory: 18
  Lift-and-project: 1
  MIR: 3
  StrongCG: 5
  GUB cover: 5

Explored 26 nodes (3279 simplex iterations) in 1.58 seconds (0.35 work units)
Thread count was 32 (of 80 available processors)

Solution count 3: 51.7274 52.387 52.9728 

Optimal solution found (tolerance 1.00e-04)
Best objective 5.172739385852e+01, best bound 5.172739385852e+01, gap 0.0000%

User-callback calls 557, time in user-callback 0.78 sec
cuts :  0
